(set-logic QF_UF)
(declare-fun A2 () Bool)
(declare-fun A3 () Bool)
(declare-fun A4 () Bool)
(declare-fun A5 () Bool)
(declare-fun A6 () Bool)
(declare-fun A7 () Bool)
(declare-fun A8 () Bool)
(declare-fun A9 () Bool)
(declare-fun A10 () Bool)
(declare-fun A11 () Bool)
(declare-fun A12 () Bool)
(declare-fun A13 () Bool)
(declare-fun A14 () Bool)
(declare-fun A15 () Bool)
(declare-fun A17 () Bool)
(declare-fun A18 () Bool)
(declare-fun A19 () Bool)
(declare-fun A20 () Bool)
(declare-fun A21 () Bool)
(declare-fun A22 () Bool)
(declare-fun A23 () Bool)
(declare-fun A24 () Bool)
(assert (let ((.def_0 (not A14))) (let ((.def_1 (= .def_0 A22))) (let ((.def_2 (not .def_1))) (let ((.def_3 (not A11))) (let ((.def_4 (and A6 .def_3))) (let ((.def_5 (= .def_4 .def_2))) (let ((.def_6 (not A2))) (let ((.def_7 (and A17 .def_6))) (let ((.def_8 (not .def_7))) (let ((.def_9 (not A19))) (let ((.def_10 (or A10 .def_9))) (let ((.def_11 (or .def_10 .def_8))) (let ((.def_12 (not .def_11))) (let ((.def_13 (and .def_12 .def_5))) (let ((.def_14 (not A17))) (let ((.def_15 (and .def_14 A18))) (let ((.def_16 (or A17 A19))) (let ((.def_17 (or .def_16 .def_15))) (let ((.def_18 (or A12 .def_3))) (let ((.def_19 (not A23))) (let ((.def_20 (= A13 .def_19))) (let ((.def_21 (and .def_20 .def_18))) (let ((.def_22 (or .def_21 .def_17))) (let ((.def_23 (not .def_22))) (let ((.def_24 (or .def_23 .def_13))) (let ((.def_25 (not .def_24))) (let ((.def_26 (and A22 .def_6))) (let ((.def_27 (not .def_26))) (let ((.def_28 (not A22))) (let ((.def_29 (not A3))) (let ((.def_30 (and .def_29 .def_28))) (let ((.def_31 (or .def_30 .def_27))) (let ((.def_32 (or .def_28 A12))) (let ((.def_33 (not .def_32))) (let ((.def_34 (not A9))) (let ((.def_35 (or A8 .def_34))) (let ((.def_36 (or .def_35 .def_33))) (let ((.def_37 (= .def_36 .def_31))) (let ((.def_38 (not .def_37))) (let ((.def_39 (or .def_3 .def_9))) (let ((.def_40 (not .def_39))) (let ((.def_41 (= A13 A15))) (let ((.def_42 (= .def_41 .def_40))) (let ((.def_43 (not .def_42))) (let ((.def_44 (and A5 A22))) (let ((.def_45 (and A18 .def_3))) (let ((.def_46 (not .def_45))) (let ((.def_47 (or .def_46 .def_44))) (let ((.def_48 (or .def_47 .def_43))) (let ((.def_49 (not .def_48))) (let ((.def_50 (or .def_49 .def_38))) (let ((.def_51 (not .def_50))) (let ((.def_52 (or .def_51 .def_25))) (let ((.def_53 (not A4))) (let ((.def_54 (and .def_53 A6))) (let ((.def_55 (not .def_54))) (let ((.def_56 (not A20))) (let ((.def_57 (or A5 .def_56))) (let ((.def_58 (or .def_57 .def_55))) (let ((.def_59 (not .def_58))) (let ((.def_60 (or .def_29 A22))) (let ((.def_61 (or A5 A6))) (let ((.def_62 (or .def_61 .def_60))) (let ((.def_63 (and .def_62 .def_59))) (let ((.def_64 (not .def_63))) (let ((.def_65 (and A18 .def_34))) (let ((.def_66 (not A21))) (let ((.def_67 (and .def_66 A12))) (let ((.def_68 (not .def_67))) (let ((.def_69 (or .def_68 .def_65))) (let ((.def_70 (and .def_53 .def_3))) (let ((.def_71 (not A18))) (let ((.def_72 (not A15))) (let ((.def_73 (or .def_72 .def_71))) (let ((.def_74 (not .def_73))) (let ((.def_75 (or .def_74 .def_70))) (let ((.def_76 (not .def_75))) (let ((.def_77 (or .def_76 .def_69))) (let ((.def_78 (and .def_77 .def_64))) (let ((.def_79 (not .def_78))) (let ((.def_80 (or A5 A21))) (let ((.def_81 (not .def_80))) (let ((.def_82 (not A7))) (let ((.def_83 (or .def_82 A12))) (let ((.def_84 (or .def_83 .def_81))) (let ((.def_85 (not .def_84))) (let ((.def_86 (or A21 A6))) (let ((.def_87 (or A19 .def_71))) (let ((.def_88 (and .def_87 .def_86))) (let ((.def_89 (or .def_88 .def_85))) (let ((.def_90 (and .def_34 A24))) (let ((.def_91 (or .def_72 A18))) (let ((.def_92 (or .def_91 .def_90))) (let ((.def_93 (or A23 .def_71))) (let ((.def_94 (not .def_93))) (let ((.def_95 (or .def_66 .def_29))) (let ((.def_96 (and .def_95 .def_94))) (let ((.def_97 (= .def_96 .def_92))) (let ((.def_98 (or .def_97 .def_89))) (let ((.def_99 (not .def_98))) (let ((.def_100 (or .def_99 .def_79))) (let ((.def_101 (not .def_100))) (let ((.def_102 (and .def_101 .def_52))) (let ((.def_103 (not .def_102))) .def_103)))))))))))))))))))))))))))))))))))))))))))))))))))))))))))))))))))))))))))))))))))))))))))))))))))))))))
(check-sat)
